% seed = 0

mint = 31;
% maxt = 136;

nActs = 62;
dur = [0,1,2,1,4,1,2,4,1,2,2,3,2,2,1,1,2,2,3,1,3,2,4,3,1,2,2,3,2,4,4,2,3,1,3,2,1,1,4,3,3,2,2,6,1,2,2,4,4,3,2,1,1,2,2,1,2,1,3,2,3,0];

nSkills = 9;
sreq = [| 0,0,0,0,0,0,0,0,0,
	| 0,0,0,0,0,1,2,0,0,
	| 0,0,0,0,0,1,0,0,0,
	| 0,0,1,0,0,0,1,0,0,
	| 0,0,0,0,0,0,1,1,0,
	| 0,0,1,0,0,1,1,0,0,
	| 0,0,1,0,0,0,1,0,0,
	| 0,0,1,0,1,0,0,0,0,
	| 0,1,0,0,0,0,0,0,0,
	| 0,0,0,0,0,1,0,1,0,
	| 0,0,0,1,0,1,1,0,0,
	| 0,0,0,0,0,1,0,1,0,
	| 0,0,0,0,1,0,0,0,0,
	| 0,0,0,0,0,0,2,0,0,
	| 0,0,0,0,0,1,0,1,0,
	| 0,0,0,0,0,1,0,0,0,
	| 0,0,0,0,2,0,0,0,0,
	| 0,0,0,1,0,1,0,1,0,
	| 0,0,0,0,1,2,0,0,0,
	| 0,0,0,0,0,1,0,2,0,
	| 0,0,0,0,0,0,1,1,0,
	| 0,0,0,0,0,0,0,1,0,
	| 0,0,0,0,1,0,1,1,0,
	| 0,0,0,0,0,1,1,1,0,
	| 0,0,0,0,0,0,0,1,0,
	| 0,0,0,0,1,1,0,0,0,
	| 0,0,1,0,0,0,0,1,0,
	| 0,0,0,0,0,0,2,0,0,
	| 0,0,0,0,0,1,2,0,0,
	| 0,0,0,0,0,1,0,0,0,
	| 0,0,1,0,0,0,0,0,0,
	| 0,0,1,0,0,1,1,0,0,
	| 0,1,0,0,0,0,0,1,0,
	| 0,0,0,0,1,0,0,1,0,
	| 0,0,0,0,0,1,1,0,0,
	| 0,0,0,0,0,0,0,1,0,
	| 1,0,0,0,1,0,1,0,0,
	| 0,0,1,0,0,1,0,1,0,
	| 0,0,0,0,0,1,2,0,0,
	| 0,0,2,0,0,0,1,0,0,
	| 0,0,0,0,0,1,2,0,0,
	| 0,0,0,0,0,0,1,1,0,
	| 0,0,0,0,1,0,0,2,0,
	| 0,0,0,0,0,1,1,1,0,
	| 0,0,0,0,1,0,0,0,0,
	| 0,1,0,0,0,0,0,0,0,
	| 0,0,0,0,0,1,0,0,0,
	| 0,0,0,0,0,0,0,1,1,
	| 0,0,1,0,0,1,0,1,0,
	| 0,0,0,0,1,0,0,2,0,
	| 0,0,1,0,0,0,0,0,0,
	| 0,0,0,0,0,1,0,1,0,
	| 0,0,0,0,0,1,0,2,0,
	| 0,0,0,0,0,0,1,0,0,
	| 0,0,0,0,0,0,1,0,0,
	| 0,0,1,0,0,1,0,1,0,
	| 0,0,0,0,1,1,0,0,0,
	| 0,0,0,0,0,0,1,0,0,
	| 0,0,0,0,1,1,1,0,0,
	| 0,1,0,0,2,0,0,0,0,
	| 0,0,0,0,0,0,1,1,0,
	| 0,0,0,0,0,0,0,0,0, |];

% SumOfsreq = 127;

nResources = 10;
mastery = [| false,false,false,false,false,true,false,false,false,
	| false,false,true,false,false,false,false,true,true,
	| false,false,false,false,false,false,true,true,true,
	| false,false,true,false,false,false,true,true,true,
	| false,false,false,false,false,false,true,true,true,
	| false,false,false,false,true,true,false,false,false,
	| true,true,true,true,true,true,false,false,true,
	| false,false,false,false,true,true,true,true,true,
	| false,false,false,false,false,false,true,true,true,
	| false,false,false,false,false,false,false,true,true, |];

nPrecs = 93;
pred = [1,1,1,2,2,2,3,4,4,5,5,5,6,6,6,7,7,7,8,8,9,10,11,11,11,12,12,13,14,14,15,16,16,17,17,18,18,19,19,19,20,20,21,21,22,22,23,24,25,26,26,27,28,29,29,29,30,31,32,33,34,35,36,37,38,39,40,41,42,42,43,43,44,45,45,46,46,47,48,49,50,51,51,52,53,54,55,56,57,58,59,60,61];
succ = [2,3,4,18,6,16,5,11,12,36,29,7,14,15,22,32,20,8,9,10,19,49,13,30,46,25,26,57,17,61,34,57,56,44,45,38,24,58,39,23,26,21,47,40,42,27,53,28,37,33,35,54,37,43,60,31,56,56,52,48,43,41,58,58,42,52,42,45,50,44,44,53,49,50,48,53,48,51,52,59,55,61,54,54,61,55,57,59,60,59,62,62,62];

nUnrels = 1265;
unpred = [2,2,2,2,2,2,2,2,2,2,2,2,2,2,2,2,2,2,2,2,2,2,2,2,2,2,2,2,2,3,3,3,3,3,3,3,3,3,3,3,3,3,3,3,3,3,3,3,3,4,4,4,4,4,4,4,4,4,4,4,4,4,4,4,4,4,4,4,4,4,4,4,4,4,4,4,4,4,4,4,4,4,5,5,5,5,5,5,5,5,5,5,5,5,5,5,5,5,5,5,5,6,6,6,6,6,6,6,6,6,6,6,6,6,6,6,6,6,6,6,6,6,6,6,6,6,6,6,6,6,6,6,6,6,6,7,7,7,7,7,7,7,7,7,7,7,7,7,7,7,7,7,7,7,7,7,7,7,8,8,8,8,8,8,8,8,8,8,8,8,8,8,8,8,8,8,8,8,8,8,8,8,8,8,8,8,8,8,8,8,8,8,8,8,8,8,9,9,9,9,9,9,9,9,9,9,9,9,9,9,9,9,9,9,9,9,9,9,9,9,9,9,9,9,9,9,9,9,9,9,9,9,9,9,9,9,10,10,10,10,10,10,10,10,10,10,10,10,10,10,10,10,10,10,10,10,10,10,10,10,10,10,10,10,10,10,10,10,10,10,10,10,10,10,10,10,10,10,10,10,10,10,10,10,10,11,11,11,11,11,11,11,11,11,11,11,11,11,11,11,11,11,11,11,11,11,11,11,11,11,11,11,11,11,11,11,11,11,11,11,11,11,12,12,12,12,12,12,12,12,12,12,12,12,12,12,12,12,12,12,12,12,12,12,12,12,12,12,12,12,12,12,12,12,12,13,13,13,13,13,13,13,13,13,13,13,13,13,13,13,13,13,13,13,13,13,13,13,13,13,13,13,13,13,13,13,13,13,13,13,13,13,13,13,13,13,13,13,13,13,13,14,14,14,14,14,14,14,14,14,14,14,14,14,14,14,14,14,14,14,14,14,14,14,14,14,14,14,14,14,14,14,14,14,14,15,15,15,15,15,15,15,15,15,15,15,15,15,15,15,15,15,15,15,15,15,15,15,15,15,15,15,15,15,15,15,15,15,15,15,15,15,15,15,16,16,16,16,16,16,16,16,16,16,16,16,16,16,16,16,16,16,16,16,16,16,16,16,16,16,16,16,16,16,16,16,16,16,16,16,16,16,16,16,16,17,17,17,17,17,17,17,17,17,17,17,17,17,17,17,17,17,17,17,17,17,17,17,17,17,17,17,17,17,17,17,17,17,18,18,18,18,18,18,18,18,18,18,18,18,18,18,18,18,18,18,18,18,18,18,18,18,18,18,18,18,18,18,19,19,19,19,19,19,19,19,19,19,19,19,19,19,19,19,19,19,19,19,19,19,19,19,19,19,19,19,19,19,19,20,20,20,20,20,20,20,20,20,20,20,20,20,20,20,20,20,20,20,20,21,21,21,21,21,21,21,21,21,21,21,21,21,21,21,21,21,21,21,21,21,21,21,21,21,21,21,22,22,22,22,22,22,22,22,22,22,22,22,22,22,22,22,22,22,22,22,22,22,22,22,22,22,22,22,22,23,23,23,23,23,23,23,23,23,23,23,23,23,23,23,23,23,23,23,23,23,23,23,23,23,23,23,23,23,23,23,23,23,23,23,23,24,24,24,24,24,24,24,24,24,24,24,24,24,24,24,24,24,24,24,24,24,24,24,24,24,24,24,24,24,24,24,24,24,25,25,25,25,25,25,25,25,25,25,25,25,25,25,25,25,25,25,25,25,25,25,25,25,25,25,25,25,25,25,25,25,25,26,26,26,26,26,26,26,26,26,26,26,26,26,26,26,26,26,26,26,26,26,26,26,26,27,27,27,27,27,27,27,27,27,27,27,27,27,27,27,27,27,27,27,27,27,27,27,27,27,27,27,27,27,27,28,28,28,28,28,28,28,28,28,28,28,28,28,28,28,28,28,28,28,28,28,28,28,28,28,28,28,28,28,28,29,29,29,29,29,29,29,29,29,29,29,29,29,29,29,29,29,29,29,29,29,29,29,30,30,30,30,30,30,30,30,30,30,30,30,30,30,30,30,30,30,30,30,30,30,30,30,30,30,30,30,30,31,31,31,31,31,31,31,31,31,31,31,31,31,31,31,31,31,31,31,31,31,31,31,31,31,31,31,31,32,32,32,32,32,32,32,32,32,32,32,32,32,32,32,32,32,32,32,32,32,32,32,32,33,33,33,33,33,33,33,33,33,33,33,33,33,33,33,33,33,33,33,33,33,33,34,34,34,34,34,34,34,34,34,34,34,34,34,34,34,34,34,34,34,34,34,35,35,35,35,35,35,35,35,35,35,35,35,35,35,35,35,35,36,36,36,36,36,36,36,36,36,36,36,36,36,36,36,36,36,36,36,36,36,36,36,37,37,37,37,37,37,37,37,37,37,37,37,37,37,37,37,37,37,37,37,37,37,38,38,38,38,38,38,38,38,38,38,38,38,38,38,38,39,39,39,39,39,39,39,39,39,39,39,39,39,39,39,39,39,40,40,40,40,40,40,40,40,40,40,40,40,40,41,41,41,41,41,41,41,41,41,41,41,41,42,42,42,42,42,42,42,42,42,42,42,42,43,43,43,43,43,43,43,43,43,43,43,43,43,44,44,44,44,44,44,44,44,44,44,44,44,44,44,44,45,45,45,45,45,45,45,45,45,46,46,46,46,46,46,46,47,47,47,47,47,47,47,47,48,48,48,48,48,48,48,48,49,49,49,49,49,49,49,49,49,49,49,50,50,50,50,50,50,50,50,51,51,51,51,51,52,52,52,52,52,53,53,53,53,53,53,53,54,54,54,54,55,55,55,55,56,56,56,56,57,57,57,58,58,59,59,60];
unsucc = [3,4,5,7,8,9,10,11,12,13,19,20,21,23,25,26,29,30,31,32,33,35,36,39,40,41,46,47,51,4,6,11,12,13,14,15,16,17,18,22,24,25,27,28,30,34,37,38,46,5,6,7,8,9,10,14,15,16,17,18,19,20,21,22,23,24,27,28,29,31,32,34,36,38,39,40,42,43,44,47,49,51,6,11,12,13,14,15,16,17,18,22,24,25,27,28,30,34,37,38,46,7,8,9,10,11,12,13,16,18,19,20,21,23,24,25,26,28,29,30,31,32,33,35,36,37,38,39,40,41,46,47,51,56,58,11,12,13,14,15,16,17,18,22,24,25,27,28,29,30,31,34,36,37,38,43,46,56,11,12,13,14,15,16,17,18,20,21,22,24,25,26,27,28,29,30,31,32,33,34,35,36,37,38,40,41,42,43,44,45,46,47,48,50,51,56,10,11,12,13,14,15,16,17,18,20,21,22,24,25,26,27,28,29,30,31,32,33,34,35,36,37,38,40,41,42,43,44,45,46,47,48,49,50,51,56,11,12,13,14,15,16,17,18,19,20,21,22,23,24,25,26,27,28,29,30,31,32,33,34,35,36,37,38,39,40,41,42,43,44,45,46,47,48,50,51,52,53,54,55,56,57,58,60,61,12,14,15,16,17,18,19,20,21,22,23,24,25,26,27,28,29,31,32,33,34,35,36,37,38,39,40,41,42,43,44,45,47,49,50,51,58,13,14,15,16,17,18,19,20,21,22,23,24,27,28,29,30,31,32,34,36,38,39,40,42,43,44,46,47,49,51,53,56,61,14,15,16,17,18,19,20,21,22,23,24,25,26,27,28,29,30,31,32,33,34,35,36,37,38,39,40,41,42,43,44,45,46,47,48,49,50,51,52,53,54,55,56,58,59,61,15,16,18,19,20,21,22,23,24,25,26,27,28,29,30,31,32,33,34,35,36,37,38,39,40,41,42,43,46,47,51,53,56,58,16,17,18,19,20,21,22,23,24,25,26,27,28,29,30,31,32,33,35,36,37,38,39,40,41,42,45,46,47,48,50,51,52,54,55,56,57,58,60,17,18,19,20,21,22,23,24,25,26,27,28,29,30,31,32,33,34,35,36,37,38,39,40,41,42,43,44,45,46,47,48,49,50,51,52,53,54,55,58,61,18,19,20,21,22,23,24,25,26,27,28,29,30,31,32,33,34,35,36,37,38,39,40,41,42,43,46,47,51,53,56,58,61,19,20,21,22,23,25,26,27,29,30,31,32,33,34,35,36,39,40,41,43,45,46,47,48,51,52,53,54,56,61,20,21,22,24,25,26,27,28,29,30,31,32,33,34,35,36,37,38,40,41,42,43,44,45,46,47,48,49,50,51,56,22,23,24,25,27,28,29,30,31,32,34,36,37,38,39,43,46,53,56,58,22,23,24,25,26,27,28,29,30,31,32,33,34,35,36,37,38,39,41,43,45,46,48,52,53,56,58,23,24,25,26,28,29,30,31,32,33,34,35,36,37,38,39,40,41,43,45,46,47,48,51,52,53,56,58,61,24,25,26,27,28,29,30,31,32,33,34,35,36,37,38,39,40,41,42,43,44,45,46,47,48,49,50,51,52,54,55,56,57,58,59,60,25,26,27,29,30,31,32,33,34,35,36,38,39,40,41,42,43,44,45,46,47,48,49,50,51,52,53,54,55,56,57,60,61,26,27,28,29,30,31,32,33,34,35,36,38,39,40,41,42,43,44,45,46,47,48,49,50,51,52,53,54,55,56,57,60,61,27,28,29,30,31,32,34,36,37,38,39,40,42,43,44,46,47,49,51,53,56,58,59,61,28,29,30,31,32,33,34,35,36,37,38,39,40,41,42,43,44,45,46,47,48,49,50,51,52,53,56,58,59,61,29,30,31,32,33,34,35,36,38,39,40,41,42,43,44,45,46,47,48,49,50,51,52,53,54,55,56,57,60,61,30,32,33,34,35,36,37,38,39,40,41,42,45,46,47,48,50,51,52,54,55,57,58,31,32,33,34,35,36,37,38,39,40,41,42,43,44,45,46,47,48,49,50,51,52,53,54,55,57,58,60,61,32,33,34,35,36,37,38,39,40,41,42,43,44,45,46,47,48,49,50,51,52,53,54,55,57,58,60,61,33,34,35,36,37,38,39,40,41,42,43,44,45,46,47,48,49,50,51,53,56,58,59,61,34,35,36,37,38,39,40,41,42,43,44,45,46,47,49,50,51,53,56,58,59,61,35,36,37,38,39,40,41,42,45,46,47,48,50,51,52,54,55,56,57,58,60,36,37,38,39,40,42,43,44,46,47,49,51,53,56,58,59,61,37,38,39,40,41,42,43,44,45,46,47,48,49,50,51,52,53,54,55,56,57,60,61,38,39,40,41,42,43,44,45,46,47,48,49,50,51,52,53,54,55,56,57,60,61,39,40,41,43,45,46,47,48,51,52,53,54,56,58,61,40,41,42,43,44,45,46,47,48,49,50,51,53,56,58,59,61,41,43,45,46,47,48,51,52,53,54,56,58,61,42,43,44,46,47,49,51,53,56,58,59,61,43,45,46,47,48,51,52,53,54,56,58,61,45,46,47,48,50,51,52,54,55,56,57,58,60,45,46,47,48,50,51,52,53,54,55,56,57,58,60,61,46,47,49,51,53,56,58,59,61,47,49,50,51,56,58,59,48,49,50,52,53,56,58,59,49,50,51,53,56,58,59,61,50,51,52,53,54,55,56,57,58,60,61,51,52,53,54,56,58,59,61,52,53,56,58,59,53,56,58,59,61,54,55,56,57,58,59,60,56,58,59,61,56,58,59,61,57,58,60,61,58,59,61,60,61,60,61,61];

USEFUL_RES = [{},
	{1,3,4,5,6,7,8,9},
	{1,6,7,8},
	{2,3,4,5,7,8,9},
	{2,3,4,5,8,9,10},
	{1,2,3,4,5,6,7,8,9},
	{2,3,4,5,7,8,9},
	{2,4,6,7,8},
	{7},
	{1,2,3,4,5,6,7,8,9,10},
	{1,3,4,5,6,7,8,9},
	{1,2,3,4,5,6,7,8,9,10},
	{6,7,8},
	{3,4,5,8,9},
	{1,2,3,4,5,6,7,8,9,10},
	{1,6,7,8},
	{6,7,8},
	{1,2,3,4,5,6,7,8,9,10},
	{1,6,7,8},
	{1,2,3,4,5,6,7,8,9,10},
	{2,3,4,5,8,9,10},
	{2,3,4,5,8,9,10},
	{2,3,4,5,6,7,8,9,10},
	{1,2,3,4,5,6,7,8,9,10},
	{2,3,4,5,8,9,10},
	{1,6,7,8},
	{2,3,4,5,7,8,9,10},
	{3,4,5,8,9},
	{1,3,4,5,6,7,8,9},
	{1,6,7,8},
	{2,4,7},
	{1,2,3,4,5,6,7,8,9},
	{2,3,4,5,7,8,9,10},
	{2,3,4,5,6,7,8,9,10},
	{1,3,4,5,6,7,8,9},
	{2,3,4,5,8,9,10},
	{3,4,5,6,7,8,9},
	{1,2,3,4,5,6,7,8,9,10},
	{1,3,4,5,6,7,8,9},
	{2,3,4,5,7,8,9},
	{1,3,4,5,6,7,8,9},
	{2,3,4,5,8,9,10},
	{2,3,4,5,6,7,8,9,10},
	{1,2,3,4,5,6,7,8,9,10},
	{6,7,8},
	{7},
	{1,6,7,8},
	{2,3,4,5,7,8,9,10},
	{1,2,3,4,5,6,7,8,9,10},
	{2,3,4,5,6,7,8,9,10},
	{2,4,7},
	{1,2,3,4,5,6,7,8,9,10},
	{1,2,3,4,5,6,7,8,9,10},
	{3,4,5,8,9},
	{3,4,5,8,9},
	{1,2,3,4,5,6,7,8,9,10},
	{1,6,7,8},
	{3,4,5,8,9},
	{1,3,4,5,6,7,8,9},
	{6,7,8},
	{2,3,4,5,8,9,10},
	{}];

POTENTIAL_ACT = [{2,3,6,10,11,12,15,16,18,19,20,24,26,29,30,32,35,38,39,41,44,47,49,52,53,56,57,59},
	{4,5,6,7,8,10,12,15,18,20,21,22,23,24,25,27,31,32,33,34,36,38,40,42,43,44,48,49,50,51,52,53,56,61},
	{2,4,5,6,7,10,11,12,14,15,18,20,21,22,23,24,25,27,28,29,32,33,34,35,36,37,38,39,40,41,42,43,44,48,49,50,52,53,54,55,56,58,59,61},
	{2,4,5,6,7,8,10,11,12,14,15,18,20,21,22,23,24,25,27,28,29,31,32,33,34,35,36,37,38,39,40,41,42,43,44,48,49,50,51,52,53,54,55,56,58,59,61},
	{2,4,5,6,7,10,11,12,14,15,18,20,21,22,23,24,25,27,28,29,32,33,34,35,36,37,38,39,40,41,42,43,44,48,49,50,52,53,54,55,56,58,59,61},
	{2,3,6,8,10,11,12,13,15,16,17,18,19,20,23,24,26,29,30,32,34,35,37,38,39,41,43,44,45,47,49,50,52,53,56,57,59,60},
	{2,3,4,6,7,8,9,10,11,12,13,15,16,17,18,19,20,23,24,26,27,29,30,31,32,33,34,35,37,38,39,40,41,43,44,45,46,47,48,49,50,51,52,53,56,57,59,60},
	{2,3,4,5,6,7,8,10,11,12,13,14,15,16,17,18,19,20,21,22,23,24,25,26,27,28,29,30,32,33,34,35,36,37,38,39,40,41,42,43,44,45,47,48,49,50,52,53,54,55,56,57,58,59,60,61},
	{2,4,5,6,7,10,11,12,14,15,18,20,21,22,23,24,25,27,28,29,32,33,34,35,36,37,38,39,40,41,42,43,44,48,49,50,52,53,54,55,56,58,59,61},
	{5,10,12,15,18,20,21,22,23,24,25,27,33,34,36,38,42,43,44,48,49,50,52,53,56,61}];
